;; sat

(declare-const x1 sl.list.loc)
(declare-const x2 sl.list.loc)
(declare-const x3 sl.list.loc)
(declare-const x4 sl.list.loc)
(declare-const x5 sl.list.loc)
(declare-const x6 sl.list.loc)
(declare-const x7 sl.list.loc)
(declare-const x8 sl.list.loc)
(declare-const x9 sl.list.loc)
(declare-const x10 sl.list.loc)
(declare-const x11 sl.list.loc)
(declare-const x12 sl.list.loc)
(declare-const x13 sl.list.loc)
(declare-const x14 sl.list.loc)

(assert (sl.sepcon (sl.sepcon (sl.sepcon (sl.sepcon (sl.sepcon (sl.sepcon (sl.sepcon (sl.sepcon (sl.sepcon (sl.sepcon (sl.sepcon (sl.sepcon (sl.sepcon (sl.list.eq sl.list.null sl.list.null)
 (sl.list.neq x6 x13)
)
 (sl.list.neq x6 x12)
)
 (sl.list.neq x4 x10)
)
 (sl.list.neq x1 x8)
)
 (sl.list.neq x1 x4)
)
 (sl.list.neq x1 x7)
)
 (sl.list.neq x1 x14)
)
 (sl.list.neq x3 x5)
)
 (sl.list.neq x7 x11)
)
 (sl.list.neq x7 x10)
)
 (sl.list.neq x7 x12)
)
 (sl.list.neq x2 x3)
)
 (sl.sepcon (sl.sepcon (sl.sepcon (sl.sepcon (sl.sepcon (sl.sepcon (sl.sepcon (sl.list.seg x13 x4)
 (sl.list.seg x4 x8)
)
 (sl.list.seg x9 x10)
)
 (sl.list.seg x9 x13)
)
 (sl.list.seg x7 x1)
)
 (sl.list.seg x3 x4)
)
 (sl.list.seg x11 x10)
)
 (sl.list.seg x6 x4)
)
)
)

